20 4 4 6 1312
1.0 0.47 0.0 0.46 3.0 0.48 2.0 0.17
2.0 0.16 0.0 0.28 1.0 0.42 3.0 0.15
1.0 0.3 0.0 0.32 2.0 0.43 3.0 0.3
1.0 0.23 3.0 0.18 2.0 0.47 0.0 0.22
2.0 0.48 1.0 0.43 3.0 0.36 0.0 0.24
3.0 0.45 1.0 0.23 2.0 0.32 0.0 0.28
1.0 0.28 2.0 0.38 0.0 0.4 3.0 0.34
0.0 0.35 2.0 0.29 1.0 0.23 3.0 0.36
1.0 0.29 2.0 0.31 3.0 0.17 0.0 0.39
0.0 0.3 1.0 0.36 2.0 0.21 3.0 0.44
0.0 0.5 1.0 0.42 3.0 0.43 2.0 0.31
2.0 0.16 1.0 0.46 0.0 0.26 3.0 0.36
0.0 0.26 3.0 0.24 1.0 0.32 2.0 0.47
0.0 0.34 2.0 0.37 3.0 0.48 1.0 0.15
2.0 0.26 1.0 0.48 3.0 0.45 0.0 0.33
0.0 0.39 1.0 0.42 2.0 0.32 3.0 0.42
0.0 0.36 1.0 0.19 3.0 0.27 2.0 0.35
0.0 0.22 1.0 0.45 3.0 0.49 2.0 0.17
0.0 0.17 1.0 0.47 2.0 0.43 3.0 0.21
1.0 0.33 3.0 0.37 2.0 0.45 0.0 0.19
